p edge 260 1820
e 1 11
e 1 59
e 1 112
e 1 139
e 1 147
e 1 184
e 1 236
e 2 50
e 2 63
e 2 67
e 2 69
e 2 141
e 2 185
e 2 189
e 3 11
e 3 16
e 3 23
e 3 32
e 3 223
e 3 253
e 3 254
e 4 5
e 4 14
e 4 15
e 4 51
e 4 84
e 4 98
e 4 158
e 5 14
e 5 109
e 5 143
e 5 155
e 5 165
e 5 165
e 5 228
e 6 1
e 6 17
e 6 26
e 6 26
e 6 62
e 6 78
e 6 84
e 7 41
e 7 52
e 7 64
e 7 76
e 7 103
e 7 108
e 7 130
e 8 14
e 8 93
e 8 98
e 8 101
e 8 177
e 8 194
e 8 240
e 9 33
e 9 64
e 9 100
e 9 114
e 9 115
e 9 195
e 9 218
e 10 33
e 10 136
e 10 151
e 10 186
e 10 240
e 10 251
e 10 260
e 11 5
e 11 30
e 11 58
e 11 188
e 11 191
e 11 221
e 11 240
e 12 41
e 12 42
e 12 73
e 12 120
e 12 126
e 12 195
e 12 235
e 13 22
e 13 39
e 13 43
e 13 75
e 13 93
e 13 223
e 13 239
e 14 126
e 14 155
e 14 155
e 14 217
e 14 243
e 14 249
e 14 257
e 15 100
e 15 106
e 15 130
e 15 234
e 15 240
e 15 241
e 15 248
e 16 92
e 16 104
e 16 143
e 16 162
e 16 196
e 16 207
e 16 254
e 17 19
e 17 34
e 17 130
e 17 154
e 17 207
e 17 235
e 17 236
e 18 5
e 18 40
e 18 50
e 18 89
e 18 91
e 18 150
e 18 246
e 19 27
e 19 42
e 19 44
e 19 114
e 19 115
e 19 199
e 19 217
e 20 21
e 20 29
e 20 104
e 20 131
e 20 150
e 20 176
e 20 223
e 21 38
e 21 62
e 21 146
e 21 164
e 21 171
e 21 183
e 21 201
e 22 15
e 22 39
e 22 69
e 22 134
e 22 189
e 22 233
e 22 235
e 23 74
e 23 75
e 23 132
e 23 152
e 23 156
e 23 186
e 23 210
e 24 32
e 24 37
e 24 64
e 24 176
e 24 182
e 24 220
e 24 251
e 25 12
e 25 162
e 25 183
e 25 184
e 25 205
e 25 234
e 25 246
e 26 13
e 26 62
e 26 127
e 26 168
e 26 205
e 26 221
e 26 232
e 27 7
e 27 49
e 27 75
e 27 112
e 27 138
e 27 155
e 27 183
e 28 19
e 28 30
e 28 108
e 28 135
e 28 171
e 28 221
e 28 237
e 29 84
e 29 199
e 29 203
e 29 215
e 29 225
e 29 246
e 29 252
e 30 3
e 30 103
e 30 108
e 30 115
e 30 118
e 30 136
e 30 173
e 31 107
e 31 117
e 31 147
e 31 168
e 31 197
e 31 223
e 31 244
e 32 38
e 32 120
e 32 128
e 32 135
e 32 144
e 32 174
e 32 182
e 33 39
e 33 146
e 33 165
e 33 213
e 33 225
e 33 231
e 33 253
e 34 22
e 34 48
e 34 63
e 34 69
e 34 116
e 34 152
e 34 195
e 35 11
e 35 15
e 35 26
e 35 132
e 35 149
e 35 151
e 35 184
e 36 2
e 36 15
e 36 40
e 36 42
e 36 155
e 36 223
e 36 256
e 37 22
e 37 48
e 37 76
e 37 120
e 37 167
e 37 237
e 37 241
e 38 19
e 38 30
e 38 89
e 38 119
e 38 121
e 38 175
e 38 240
e 39 40
e 39 87
e 39 102
e 39 110
e 39 127
e 39 156
e 39 177
e 40 12
e 40 22
e 40 44
e 40 59
e 40 124
e 40 174
e 40 242
e 41 48
e 41 82
e 41 139
e 41 153
e 41 154
e 41 163
e 41 201
e 42 2
e 42 17
e 42 37
e 42 47
e 42 84
e 42 121
e 42 202
e 43 22
e 43 62
e 43 122
e 43 146
e 43 197
e 43 241
e 43 256
e 44 104
e 44 108
e 44 201
e 44 209
e 44 213
e 44 228
e 44 250
e 45 16
e 45 75
e 45 91
e 45 102
e 45 122
e 45 145
e 45 208
e 46 81
e 46 86
e 46 100
e 46 102
e 46 120
e 46 188
e 46 254
e 47 1
e 47 28
e 47 74
e 47 111
e 47 120
e 47 127
e 47 146
e 48 77
e 48 79
e 48 85
e 48 90
e 48 105
e 48 141
e 48 217
e 49 5
e 49 78
e 49 157
e 49 184
e 49 189
e 49 235
e 49 257
e 50 12
e 50 31
e 50 106
e 50 110
e 50 123
e 50 218
e 50 232
e 51 42
e 51 98
e 51 146
e 51 197
e 51 199
e 51 201
e 51 208
e 52 34
e 52 43
e 52 63
e 52 167
e 52 209
e 52 227
e 52 230
e 53 9
e 53 33
e 53 65
e 53 132
e 53 153
e 53 221
e 53 242
e 54 12
e 54 19
e 54 34
e 54 37
e 54 38
e 54 173
e 54 195
e 55 13
e 55 24
e 55 135
e 55 151
e 55 174
e 55 177
e 55 251
e 56 32
e 56 92
e 56 96
e 56 137
e 56 152
e 56 162
e 56 249
e 57 37
e 57 80
e 57 91
e 57 128
e 57 133
e 57 175
e 57 209
e 58 1
e 58 10
e 58 97
e 58 129
e 58 137
e 58 137
e 58 232
e 59 46
e 59 47
e 59 158
e 59 163
e 59 212
e 59 250
e 59 252
e 60 2
e 60 71
e 60 92
e 60 93
e 60 112
e 60 115
e 60 128
e 61 14
e 61 59
e 61 68
e 61 82
e 61 90
e 61 153
e 61 237
e 62 4
e 62 41
e 62 84
e 62 101
e 62 101
e 62 104
e 62 236
e 63 49
e 63 49
e 63 80
e 63 91
e 63 187
e 63 195
e 63 244
e 64 30
e 64 114
e 64 160
e 64 184
e 64 190
e 64 214
e 64 236
e 65 86
e 65 156
e 65 187
e 65 187
e 65 237
e 65 248
e 65 251
e 66 19
e 66 29
e 66 163
e 66 188
e 66 190
e 66 213
e 66 224
e 67 22
e 67 73
e 67 98
e 67 105
e 67 135
e 67 235
e 67 243
e 68 23
e 68 72
e 68 98
e 68 164
e 68 164
e 68 180
e 68 244
e 69 11
e 69 107
e 69 109
e 69 133
e 69 154
e 69 229
e 69 243
e 70 2
e 70 93
e 70 104
e 70 121
e 70 122
e 70 167
e 70 260
e 71 27
e 71 98
e 71 105
e 71 118
e 71 153
e 71 156
e 71 216
e 72 57
e 72 74
e 72 99
e 72 146
e 72 177
e 72 198
e 72 252
e 73 64
e 73 65
e 73 78
e 73 121
e 73 175
e 73 219
e 73 228
e 74 47
e 74 51
e 74 83
e 74 141
e 74 177
e 74 197
e 74 200
e 75 28
e 75 43
e 75 48
e 75 51
e 75 178
e 75 182
e 75 215
e 76 12
e 76 43
e 76 48
e 76 72
e 76 170
e 76 208
e 76 258
e 77 6
e 77 23
e 77 86
e 77 121
e 77 217
e 77 239
e 77 247
e 78 18
e 78 69
e 78 69
e 78 77
e 78 157
e 78 170
e 78 202
e 79 46
e 79 65
e 79 69
e 79 124
e 79 133
e 79 136
e 79 242
e 80 9
e 80 71
e 80 108
e 80 117
e 80 136
e 80 186
e 80 227
e 81 20
e 81 61
e 81 61
e 81 147
e 81 148
e 81 151
e 81 250
e 82 40
e 82 108
e 82 123
e 82 135
e 82 146
e 82 228
e 82 245
e 83 1
e 83 33
e 83 105
e 83 179
e 83 193
e 83 241
e 83 258
e 84 73
e 84 83
e 84 88
e 84 133
e 84 194
e 84 202
e 84 233
e 85 61
e 85 71
e 85 127
e 85 128
e 85 132
e 85 226
e 85 234
e 86 121
e 86 125
e 86 144
e 86 152
e 86 182
e 86 234
e 86 256
e 87 1
e 87 2
e 87 18
e 87 48
e 87 57
e 87 161
e 87 202
e 88 46
e 88 66
e 88 93
e 88 113
e 88 155
e 88 194
e 88 237
e 89 15
e 89 71
e 89 91
e 89 114
e 89 156
e 89 158
e 89 196
e 90 76
e 90 95
e 90 97
e 90 151
e 90 160
e 90 195
e 90 207
e 91 1
e 91 5
e 91 60
e 91 120
e 91 196
e 91 199
e 91 201
e 92 57
e 92 79
e 92 153
e 92 153
e 92 210
e 92 228
e 92 258
e 93 24
e 93 75
e 93 101
e 93 111
e 93 129
e 93 166
e 93 204
e 94 137
e 94 165
e 94 174
e 94 177
e 94 193
e 94 205
e 94 232
e 95 2
e 95 3
e 95 29
e 95 39
e 95 139
e 95 188
e 95 256
e 96 3
e 96 20
e 96 43
e 96 44
e 96 80
e 96 81
e 96 196
e 97 11
e 97 53
e 97 100
e 97 163
e 97 176
e 97 214
e 97 230
e 98 26
e 98 55
e 98 56
e 98 154
e 98 187
e 98 191
e 98 212
e 99 63
e 99 67
e 99 75
e 99 162
e 99 211
e 99 219
e 99 255
e 100 23
e 100 42
e 100 135
e 100 137
e 100 150
e 100 163
e 100 245
e 101 212
e 101 217
e 101 218
e 101 220
e 101 220
e 101 237
e 101 254
e 102 45
e 102 97
e 102 141
e 102 150
e 102 169
e 102 196
e 102 247
e 103 3
e 103 61
e 103 76
e 103 110
e 103 142
e 103 181
e 103 250
e 104 20
e 104 44
e 104 75
e 104 85
e 104 161
e 104 214
e 104 218
e 105 5
e 105 14
e 105 35
e 105 78
e 105 169
e 105 171
e 105 251
e 106 15
e 106 58
e 106 68
e 106 182
e 106 202
e 106 236
e 106 260
e 107 87
e 107 95
e 107 106
e 107 108
e 107 116
e 107 150
e 107 248
e 108 9
e 108 29
e 108 63
e 108 66
e 108 97
e 108 236
e 108 246
e 109 6
e 109 22
e 109 28
e 109 65
e 109 113
e 109 241
e 109 247
e 110 5
e 110 15
e 110 47
e 110 52
e 110 60
e 110 141
e 110 152
e 111 3
e 111 18
e 111 79
e 111 97
e 111 117
e 111 217
e 111 218
e 112 31
e 112 65
e 112 108
e 112 113
e 112 125
e 112 153
e 112 257
e 113 80
e 113 90
e 113 110
e 113 146
e 113 190
e 113 209
e 113 243
e 114 17
e 114 34
e 114 39
e 114 96
e 114 117
e 114 229
e 114 233
e 115 28
e 115 73
e 115 124
e 115 183
e 115 235
e 115 242
e 115 249
e 116 111
e 116 117
e 116 126
e 116 172
e 116 174
e 116 204
e 116 206
e 117 142
e 117 150
e 117 154
e 117 172
e 117 217
e 117 221
e 117 247
e 118 4
e 118 8
e 118 69
e 118 143
e 118 150
e 118 189
e 118 225
e 119 25
e 119 182
e 119 195
e 119 213
e 119 218
e 119 226
e 119 259
e 120 35
e 120 70
e 120 158
e 120 169
e 120 173
e 120 194
e 120 194
e 121 23
e 121 31
e 121 51
e 121 98
e 121 126
e 121 128
e 121 248
e 122 9
e 122 12
e 122 52
e 122 77
e 122 146
e 122 190
e 122 230
e 123 83
e 123 112
e 123 119
e 123 215
e 123 236
e 123 251
e 123 255
e 124 15
e 124 61
e 124 71
e 124 106
e 124 172
e 124 209
e 124 219
e 125 12
e 125 98
e 125 118
e 125 147
e 125 205
e 125 225
e 125 259
e 126 10
e 126 41
e 126 44
e 126 64
e 126 65
e 126 95
e 126 114
e 127 12
e 127 66
e 127 113
e 127 121
e 127 171
e 127 199
e 127 216
e 128 3
e 128 17
e 128 42
e 128 44
e 128 95
e 128 129
e 128 155
e 129 2
e 129 14
e 129 40
e 129 64
e 129 122
e 129 160
e 129 219
e 130 76
e 130 98
e 130 98
e 130 109
e 130 152
e 130 198
e 130 228
e 131 32
e 131 124
e 131 145
e 131 156
e 131 183
e 131 216
e 131 244
e 132 103
e 132 106
e 132 165
e 132 225
e 132 237
e 132 250
e 132 258
e 133 60
e 133 111
e 133 154
e 133 166
e 133 190
e 133 232
e 133 239
e 134 69
e 134 71
e 134 105
e 134 205
e 134 237
e 134 242
e 134 248
e 135 8
e 135 85
e 135 136
e 135 168
e 135 177
e 135 182
e 135 252
e 136 16
e 136 26
e 136 37
e 136 103
e 136 167
e 136 183
e 136 192
e 137 25
e 137 52
e 137 70
e 137 93
e 137 96
e 137 174
e 137 250
e 138 10
e 138 79
e 138 98
e 138 102
e 138 208
e 138 258
e 138 259
e 139 58
e 139 90
e 139 126
e 139 159
e 139 191
e 139 203
e 139 215
e 140 15
e 140 68
e 140 119
e 140 147
e 140 200
e 140 236
e 140 243
e 141 21
e 141 39
e 141 84
e 141 130
e 141 232
e 141 236
e 141 243
e 142 6
e 142 75
e 142 81
e 142 118
e 142 207
e 142 257
e 142 259
e 143 44
e 143 51
e 143 77
e 143 87
e 143 122
e 143 166
e 143 179
e 144 3
e 144 49
e 144 82
e 144 89
e 144 140
e 144 220
e 144 223
e 145 19
e 145 28
e 145 37
e 145 72
e 145 135
e 145 186
e 145 193
e 146 9
e 146 27
e 146 55
e 146 83
e 146 92
e 146 236
e 146 249
e 147 144
e 147 155
e 147 180
e 147 213
e 147 215
e 147 253
e 147 258
e 148 76
e 148 135
e 148 153
e 148 230
e 148 231
e 148 249
e 148 256
e 149 71
e 149 82
e 149 105
e 149 124
e 149 188
e 149 212
e 149 229
e 150 35
e 150 89
e 150 103
e 150 139
e 150 213
e 150 215
e 150 238
e 151 69
e 151 77
e 151 90
e 151 115
e 151 144
e 151 164
e 151 217
e 152 14
e 152 62
e 152 90
e 152 172
e 152 191
e 152 248
e 152 256
e 153 7
e 153 45
e 153 124
e 153 157
e 153 159
e 153 244
e 153 258
e 154 100
e 154 101
e 154 103
e 154 107
e 154 132
e 154 182
e 154 191
e 155 33
e 155 114
e 155 160
e 155 171
e 155 193
e 155 209
e 155 216
e 156 75
e 156 94
e 156 151
e 156 157
e 156 190
e 156 226
e 156 228
e 157 23
e 157 89
e 157 159
e 157 164
e 157 177
e 157 191
e 157 240
e 158 13
e 158 18
e 158 95
e 158 125
e 158 217
e 158 219
e 158 230
e 159 18
e 159 36
e 159 107
e 159 129
e 159 192
e 159 220
e 159 225
e 160 37
e 160 50
e 160 69
e 160 91
e 160 105
e 160 170
e 160 204
e 161 18
e 161 41
e 161 53
e 161 112
e 161 137
e 161 140
e 161 198
e 162 20
e 162 68
e 162 115
e 162 135
e 162 174
e 162 177
e 162 237
e 163 54
e 163 76
e 163 135
e 163 190
e 163 191
e 163 223
e 163 224
e 164 6
e 164 55
e 164 114
e 164 151
e 164 182
e 164 183
e 164 204
e 165 19
e 165 23
e 165 145
e 165 159
e 165 169
e 165 204
e 165 219
e 166 22
e 166 54
e 166 63
e 166 142
e 166 169
e 166 209
e 166 229
e 167 5
e 167 13
e 167 21
e 167 100
e 167 114
e 167 258
e 167 260
e 168 22
e 168 29
e 168 37
e 168 75
e 168 100
e 168 162
e 168 224
e 169 19
e 169 43
e 169 53
e 169 83
e 169 97
e 169 131
e 169 234
e 170 14
e 170 38
e 170 77
e 170 135
e 170 158
e 170 237
e 170 241
e 171 14
e 171 17
e 171 20
e 171 40
e 171 132
e 171 170
e 171 212
e 172 39
e 172 43
e 172 85
e 172 145
e 172 219
e 172 248
e 172 259
e 173 32
e 173 142
e 173 171
e 173 177
e 173 200
e 173 211
e 173 231
e 174 35
e 174 71
e 174 123
e 174 125
e 174 199
e 174 228
e 174 230
e 175 13
e 175 29
e 175 33
e 175 53
e 175 115
e 175 145
e 175 163
e 176 16
e 176 36
e 176 55
e 176 96
e 176 184
e 176 241
e 176 248
e 177 3
e 177 125
e 177 132
e 177 166
e 177 174
e 177 225
e 177 255
e 178 27
e 178 59
e 178 101
e 178 151
e 178 200
e 178 226
e 178 234
e 179 31
e 179 36
e 179 67
e 179 98
e 179 167
e 179 221
e 179 255
e 180 48
e 180 54
e 180 63
e 180 66
e 180 101
e 180 207
e 180 208
e 181 13
e 181 33
e 181 115
e 181 149
e 181 170
e 181 223
e 181 226
e 182 4
e 182 9
e 182 10
e 182 66
e 182 134
e 182 137
e 182 195
e 183 30
e 183 110
e 183 172
e 183 186
e 183 194
e 183 244
e 183 255
e 184 148
e 184 154
e 184 163
e 184 186
e 184 193
e 184 217
e 184 240
e 185 67
e 185 73
e 185 118
e 185 124
e 185 147
e 185 177
e 185 255
e 186 43
e 186 56
e 186 133
e 186 146
e 186 167
e 186 202
e 186 242
e 187 48
e 187 56
e 187 158
e 187 167
e 187 170
e 187 184
e 187 250
e 188 65
e 188 71
e 188 97
e 188 163
e 188 199
e 188 230
e 188 241
e 189 31
e 189 53
e 189 56
e 189 76
e 189 179
e 189 227
e 189 238
e 190 89
e 190 101
e 190 142
e 190 150
e 190 157
e 190 160
e 190 230
e 191 8
e 191 13
e 191 33
e 191 75
e 191 131
e 191 149
e 191 195
e 192 46
e 192 50
e 192 56
e 192 84
e 192 170
e 192 243
e 192 254
e 193 30
e 193 84
e 193 125
e 193 126
e 193 195
e 193 227
e 193 247
e 194 50
e 194 96
e 194 132
e 194 159
e 194 174
e 194 230
e 194 249
e 195 1
e 195 3
e 195 21
e 195 132
e 195 157
e 195 162
e 195 260
e 196 6
e 196 23
e 196 25
e 196 140
e 196 171
e 196 194
e 196 258
e 197 55
e 197 89
e 197 128
e 197 134
e 197 172
e 197 200
e 197 249
e 198 65
e 198 82
e 198 103
e 198 169
e 198 175
e 198 216
e 198 242
e 199 3
e 199 34
e 199 51
e 199 204
e 199 222
e 199 225
e 199 234
e 200 55
e 200 57
e 200 85
e 200 87
e 200 165
e 200 204
e 200 232
e 201 54
e 201 79
e 201 102
e 201 107
e 201 122
e 201 214
e 201 249
e 202 45
e 202 66
e 202 71
e 202 149
e 202 178
e 202 210
e 202 253
e 203 26
e 203 91
e 203 125
e 203 136
e 203 161
e 203 169
e 203 212
e 204 13
e 204 24
e 204 109
e 204 109
e 204 165
e 204 168
e 204 184
e 205 20
e 205 73
e 205 161
e 205 194
e 205 231
e 205 237
e 205 259
e 206 50
e 206 66
e 206 72
e 206 140
e 206 148
e 206 165
e 206 243
e 207 3
e 207 57
e 207 73
e 207 144
e 207 206
e 207 227
e 207 236
e 208 20
e 208 35
e 208 50
e 208 69
e 208 82
e 208 131
e 208 169
e 209 16
e 209 72
e 209 124
e 209 185
e 209 198
e 209 217
e 209 224
e 210 3
e 210 36
e 210 57
e 210 120
e 210 121
e 210 144
e 210 209
e 211 25
e 211 48
e 211 88
e 211 140
e 211 162
e 211 165
e 211 222
e 212 27
e 212 86
e 212 128
e 212 138
e 212 184
e 212 194
e 212 231
e 213 39
e 213 67
e 213 69
e 213 108
e 213 115
e 213 168
e 213 191
e 214 25
e 214 27
e 214 94
e 214 110
e 214 125
e 214 210
e 214 247
e 215 117
e 215 125
e 215 177
e 215 191
e 215 206
e 215 249
e 215 260
e 216 39
e 216 47
e 216 75
e 216 80
e 216 85
e 216 109
e 216 125
e 217 8
e 217 22
e 217 23
e 217 83
e 217 160
e 217 238
e 217 238
e 218 77
e 218 79
e 218 99
e 218 129
e 218 137
e 218 149
e 218 238
e 219 65
e 219 67
e 219 102
e 219 146
e 219 223
e 219 235
e 219 236
e 220 4
e 220 21
e 220 98
e 220 133
e 220 134
e 220 139
e 220 257
e 221 8
e 221 22
e 221 51
e 221 82
e 221 130
e 221 200
e 221 220
e 222 137
e 222 185
e 222 196
e 222 207
e 222 219
e 222 241
e 222 241
e 223 23
e 223 66
e 223 73
e 223 85
e 223 217
e 223 249
e 223 254
e 224 39
e 224 76
e 224 105
e 224 168
e 224 194
e 224 219
e 224 236
e 225 2
e 225 70
e 225 95
e 225 109
e 225 141
e 225 241
e 225 258
e 226 16
e 226 32
e 226 56
e 226 130
e 226 163
e 226 235
e 226 235
e 227 88
e 227 102
e 227 104
e 227 122
e 227 169
e 227 174
e 227 253
e 228 16
e 228 28
e 228 39
e 228 60
e 228 121
e 228 177
e 228 223
e 229 15
e 229 105
e 229 145
e 229 174
e 229 198
e 229 209
e 229 249
e 230 2
e 230 60
e 230 80
e 230 138
e 230 171
e 230 172
e 230 250
e 231 17
e 231 39
e 231 40
e 231 69
e 231 74
e 231 112
e 231 123
e 232 50
e 232 99
e 232 117
e 232 161
e 232 169
e 232 207
e 232 237
e 233 7
e 233 34
e 233 200
e 233 201
e 233 209
e 233 241
e 233 256
e 234 61
e 234 65
e 234 77
e 234 130
e 234 191
e 234 215
e 234 255
e 235 1
e 235 10
e 235 44
e 235 69
e 235 186
e 235 188
e 235 214
e 236 74
e 236 150
e 236 185
e 236 199
e 236 204
e 236 223
e 236 240
e 237 107
e 237 113
e 237 139
e 237 161
e 237 191
e 237 253
e 237 259
e 238 71
e 238 87
e 238 104
e 238 159
e 238 212
e 238 221
e 238 241
e 239 37
e 239 89
e 239 119
e 239 165
e 239 166
e 239 175
e 239 245
e 240 56
e 240 81
e 240 154
e 240 162
e 240 167
e 240 229
e 240 256
e 241 31
e 241 75
e 241 81
e 241 109
e 241 129
e 241 157
e 241 235
e 242 59
e 242 62
e 242 73
e 242 95
e 242 178
e 242 191
e 242 249
e 243 4
e 243 101
e 243 107
e 243 132
e 243 169
e 243 194
e 243 211
e 244 22
e 244 51
e 244 56
e 244 67
e 244 143
e 244 181
e 244 186
e 245 26
e 245 39
e 245 97
e 245 102
e 245 133
e 245 152
e 245 179
e 246 40
e 246 114
e 246 132
e 246 147
e 246 160
e 246 253
e 246 259
e 247 23
e 247 32
e 247 44
e 247 58
e 247 85
e 247 126
e 247 198
e 248 20
e 248 31
e 248 60
e 248 66
e 248 133
e 248 146
e 248 149
e 249 10
e 249 48
e 249 87
e 249 126
e 249 133
e 249 144
e 249 256
e 250 16
e 250 167
e 250 169
e 250 190
e 250 195
e 250 219
e 250 256
e 251 12
e 251 78
e 251 90
e 251 121
e 251 177
e 251 185
e 251 233
e 252 27
e 252 40
e 252 55
e 252 71
e 252 216
e 252 246
e 252 257
e 253 5
e 253 18
e 253 173
e 253 193
e 253 204
e 253 206
e 253 208
e 254 2
e 254 13
e 254 181
e 254 188
e 254 198
e 254 231
e 254 239
e 255 102
e 255 154
e 255 193
e 255 196
e 255 205
e 255 246
e 255 259
e 256 38
e 256 74
e 256 112
e 256 158
e 256 181
e 256 192
e 256 206
e 257 16
e 257 50
e 257 52
e 257 66
e 257 89
e 257 160
e 257 175
e 258 32
e 258 38
e 258 151
e 258 184
e 258 219
e 258 238
e 258 239
e 259 60
e 259 62
e 259 79
e 259 123
e 259 148
e 259 181
e 259 225
e 260 18
e 260 103
e 260 178
e 260 210
e 260 211
e 260 215
e 260 242
